NAME: random problem
TYPE: MTSP
COMMENT: MTSP problem for MRS UAV summer school
DIMENSION: 20
NUMBER_OF_ROBOTS: 2
START_TARGET_INDEXES: 1, 2
NEIGHBORHOOD_RADIUS: 2
EDGE_WEIGHT_TYPE: EUC_2D
NODE_COORD_SECTION
1 15.0 -21.0
2 -5.0 -25.0
3 32.1 -11.7
4 10.8 2.8
5 5.3 1.5
6 -18.3 -20.1
7 -15.2 -10.6
8 -30.7 -12.5
9 31.5 -17.8
10 1.6 -25.2
11 17.4 -2.2
12 1.9 4.4
13 -16.8 -22.0
14 21.6 16.0
15 7.4 -18.9
16 29.8 -11.8
17 -26.9 -6.0
18 30.6 -23.4
19 15.2 -6.1
20 27.8 -14.4
EOF
